H2O system
1.0
10.0 0.00 0.00
0.00 10.0 0.00
0.00 0.00 10.0
H O
2 1
Selective Dynamics
Cartesian
0.00  0.763239 -0.477047 T T T
0.00 -0.763239 -0.477047 T T T
0.00 0.00 0.00 F F F
